Version identifier: 12.10.0.0 | 2019-11-26 | 843d4de
CPXPARAM_WorkMem                                 28672
Tried aggregator 2 times.
Aggregator did 75 substitutions.
Reduced MIP has 243 rows, 270 columns, and 1032 nonzeros.
Reduced MIP has 270 binaries, 0 generals, 0 SOSs, and 0 indicators.
Presolve time = 0,00 sec. (1,04 ticks)
Found incumbent of value 1419,000000 after 0,00 sec. (1,72 ticks)
Probing time = 0,00 sec. (0,45 ticks)
Tried aggregator 1 time.
Detecting symmetries...
MIP Presolve eliminated 78 rows and 0 columns.
MIP Presolve added 156 rows and 0 columns.
Reduced MIP has 321 rows, 270 columns, and 1110 nonzeros.
Reduced MIP has 270 binaries, 0 generals, 0 SOSs, and 0 indicators.
Presolve time = 0,00 sec. (1,48 ticks)
Probing time = 0,00 sec. (0,43 ticks)
Clique table members: 732.
MIP emphasis: balance optimality and feasibility.
MIP search method: dynamic search.
Parallel mode: deterministic, using up to 16 threads.
Root relaxation solution time = 0,00 sec. (1,63 ticks)

        Nodes                                         Cuts/
   Node  Left     Objective  IInf  Best Integer    Best Bound    ItCnt     Gap

*     0+    0                         1419,0000        0,0000           100,00%
*     0+    0                          941,0000        0,0000           100,00%
*     0+    0                          918,0000        0,0000           100,00%
      0     0      473,0000   270      918,0000      473,0000      138   48,47%
      0     0      477,3824   270      918,0000       Cuts: 6      185   48,00%
      0     0      482,2606   270      918,0000       Cuts: 8      224   47,47%
      0     0      484,6695   270      918,0000       Cuts: 5      243   47,20%
      0     0      487,2158   270      918,0000      Fract: 3      263   46,93%
      0     0      487,4762   270      918,0000      Fract: 1      264   46,90%
      0     0      547,6426   270      918,0000     Cuts: 180      381   40,34%
      0     0      553,2177   270      918,0000     Cuts: 129      412   39,74%
*     0+    0                          865,0000      553,2177            36,04%
      0     0      554,0384   270      865,0000      Cuts: 11      423   30,14%
      0     0      554,5154   270      865,0000       Cuts: 5      432   30,14%
*     0+    0                          862,0000      604,2507            29,90%
      0     2      554,5154   249      862,0000      651,6389      432   24,40%
Elapsed time = 0,26 sec. (142,99 ticks, tree = 0,02 MB, solutions = 5)
*   384   156      integral     0      858,0000      651,6389    13707   24,05%

Clique cuts applied:  58
Cover cuts applied:  263
Flow cuts applied:  1
Mixed integer rounding cuts applied:  76
Zero-half cuts applied:  45
Gomory fractional cuts applied:  8

Root node processing (before b&c):
  Real time             =    0,26 sec. (142,63 ticks)
Parallel b&c, 16 threads:
  Real time             =    0,14 sec. (109,91 ticks)
  Sync time (average)   =    0,05 sec.
  Wait time (average)   =    0,00 sec.
                          ------------
Total (root+branch&cut) =    0,40 sec. (252,54 ticks)
